========================================================== 
File name: C:\DEGR\assets\definitions\MSRCPSP_Gen\200_40_512_10_D.def
Creation date: Wed May 03 10:50:05 CEST 2023
Website: http://imopse.ii.pwr.edu.pl/ 
Reference: 
Myszkowski P. B., Skowronski M. E., Olech L., Oslizlo K., 
Hybrid Ant Colony Optimization in solving Multi-Skill Resource-Constrained Project Scheduling Problem, 
Soft Computing, DOI: DOI 10.1007/s00500-014-1455-x 
========================================================== 
General characteristics: 
Tasks: 200
Resources: 40
Precedence relations: 499
Number of skill types: 10
========================================================== 
ResourceID 	 Salary 	 Skills 
1	 	 	85.2	 	 Q8: 1 	  Q2: 0 	  Q6: 1 	  Q7: 3 	 
2	 	 	39.9	 	 Q7: 1 	  Q5: 2 	  Q4: 3 	 
3	 	 	21.1	 	 Q8: 0 	  Q3: 0 	  Q4: 1 	  Q9: 2 	  Q0: 3 	  Q6: 1 	  Q1: 1 	  Q7: 2 	 
4	 	 	55.9	 	 Q3: 2 	  Q7: 1 	  Q9: 2 	  Q0: 1 	  Q8: 0 	  Q1: 1 	  Q2: 1 	 
5	 	 	51.3	 	 Q9: 1 	 
6	 	 	85.9	 	 Q7: 0 	  Q8: 3 	  Q3: 3 	  Q2: 2 	  Q9: 0 	  Q6: 0 	  Q5: 0 	  Q1: 0 	 
7	 	 	25.1	 	 Q3: 0 	  Q2: 2 	  Q4: 2 	  Q9: 3 	 
8	 	 	29.2	 	 Q2: 0 	  Q8: 1 	  Q7: 2 	 
9	 	 	11.3	 	 Q8: 2 	 
10	 	 	24.1	 	 Q4: 1 	  Q9: 3 	 
11	 	 	71.3	 	 Q1: 1 	  Q8: 3 	  Q7: 3 	  Q4: 2 	  Q3: 3 	  Q9: 3 	  Q0: 0 	  Q5: 0 	 
12	 	 	90.1	 	 Q8: 1 	  Q3: 1 	  Q7: 1 	 
13	 	 	53.1	 	 Q8: 1 	  Q0: 0 	 
14	 	 	43.5	 	 Q2: 0 	  Q6: 2 	  Q8: 0 	  Q7: 3 	  Q0: 2 	  Q5: 0 	 
15	 	 	68.5	 	 Q1: 2 	 
16	 	 	29.8	 	 Q2: 2 	  Q6: 3 	  Q9: 1 	 
17	 	 	25.5	 	 Q9: 3 	  Q1: 3 	 
18	 	 	90.0	 	 Q7: 0 	  Q5: 3 	  Q1: 3 	  Q2: 0 	  Q4: 1 	  Q6: 0 	  Q3: 0 	  Q0: 3 	  Q8: 0 	 
19	 	 	87.0	 	 Q2: 2 	  Q9: 2 	  Q8: 0 	  Q0: 0 	 
20	 	 	22.2	 	 Q9: 3 	  Q5: 2 	  Q2: 2 	  Q3: 1 	  Q0: 3 	  Q7: 1 	  Q1: 1 	  Q8: 0 	  Q6: 1 	 
21	 	 	19.7	 	 Q4: 2 	 
22	 	 	15.1	 	 Q2: 0 	  Q4: 1 	  Q9: 3 	  Q3: 2 	  Q6: 0 	  Q8: 1 	 
23	 	 	18.6	 	 Q0: 1 	  Q4: 2 	  Q3: 1 	  Q9: 3 	  Q2: 3 	  Q1: 2 	  Q5: 0 	  Q7: 2 	  Q8: 1 	 
24	 	 	72.9	 	 Q6: 1 	  Q7: 1 	  Q5: 3 	  Q3: 3 	  Q2: 3 	  Q4: 1 	  Q8: 2 	  Q0: 2 	 
25	 	 	78.7	 	 Q2: 3 	  Q8: 3 	  Q0: 3 	  Q1: 1 	  Q7: 2 	  Q3: 2 	 
26	 	 	36.6	 	 Q5: 3 	  Q4: 2 	  Q0: 0 	  Q2: 0 	  Q3: 1 	 
27	 	 	88.6	 	 Q1: 3 	  Q4: 1 	  Q9: 2 	  Q6: 2 	  Q3: 0 	  Q8: 0 	  Q7: 1 	  Q5: 0 	  Q2: 2 	 
28	 	 	90.4	 	 Q2: 3 	 
29	 	 	57.4	 	 Q5: 1 	  Q8: 1 	 
30	 	 	96.8	 	 Q9: 2 	  Q0: 2 	  Q2: 3 	  Q1: 1 	  Q5: 2 	  Q8: 1 	  Q7: 3 	 
31	 	 	94.6	 	 Q4: 2 	  Q1: 3 	  Q5: 1 	 
32	 	 	69.0	 	 Q2: 0 	  Q3: 0 	 
33	 	 	42.8	 	 Q9: 1 	  Q4: 1 	  Q1: 0 	  Q5: 3 	  Q6: 1 	  Q3: 2 	 
34	 	 	82.4	 	 Q0: 3 	  Q7: 0 	  Q6: 3 	  Q8: 3 	  Q4: 3 	  Q2: 2 	  Q3: 1 	 
35	 	 	62.6	 	 Q2: 3 	  Q9: 2 	 
36	 	 	29.9	 	 Q5: 1 	  Q6: 3 	  Q9: 1 	 
37	 	 	40.7	 	 Q6: 3 	  Q8: 2 	  Q4: 0 	  Q5: 0 	  Q0: 2 	  Q1: 2 	  Q9: 1 	  Q2: 0 	 
38	 	 	73.3	 	 Q5: 2 	  Q0: 1 	  Q2: 0 	  Q9: 1 	  Q6: 0 	  Q4: 2 	  Q7: 1 	  Q8: 2 	  Q1: 0 	 
39	 	 	39.0	 	 Q5: 1 	  Q2: 3 	  Q8: 3 	  Q7: 3 	  Q1: 1 	  Q0: 2 	  Q9: 3 	 
40	 	 	81.3	 	 Q1: 2 	  Q2: 2 	  Q5: 1 	  Q6: 3 	  Q3: 3 	  Q8: 3 	  Q9: 2 	 
========================================================== 
TaskID 	 Duration 	 Skill 	 Predecessor IDs 
1	32	Q8:	1
2	27	Q8:	1
3	28	Q5:	3
4	26	Q0:	3
5	34	Q8:	3
6	21	Q6:	0
7	12	Q0:	2
8	15	Q9:	3
9	38	Q5:	2
10	27	Q0:	1
11	30	Q1:	0	8
12	13	Q9:	3
13	18	Q0:	1	6
14	16	Q2:	1
15	26	Q6:	2	12	13
16	32	Q6:	3	7	8
17	19	Q4:	0
18	32	Q8:	2
19	16	Q6:	0
20	14	Q8:	0
21	34	Q2:	1
22	36	Q1:	0
23	30	Q9:	2
24	35	Q8:	2
25	12	Q6:	3	24
26	34	Q7:	1	11	16
27	23	Q4:	3	21
28	21	Q7:	3	15
29	35	Q3:	0	19
30	24	Q4:	2	14
31	18	Q8:	1	26
32	27	Q6:	2
33	26	Q4:	2
34	9	Q2:	0	9
35	9	Q8:	1	27
36	10	Q1:	2
37	11	Q0:	0
38	15	Q5:	0	7
39	33	Q4:	3	9
40	27	Q9:	1
41	22	Q5:	0	12
42	13	Q1:	3
43	40	Q1:	3	18	40
44	38	Q0:	0	3	14
45	16	Q8:	3
46	36	Q9:	1	19	42
47	12	Q3:	1	24
48	38	Q5:	2	10
49	31	Q7:	3	48	2
50	18	Q1:	3	45	15	27
51	37	Q3:	1	15
52	23	Q5:	2
53	17	Q8:	0	50	10
54	15	Q8:	3	41
55	14	Q5:	0
56	13	Q4:	2
57	9	Q6:	0	33
58	32	Q8:	0	41
59	19	Q9:	3	40
60	33	Q1:	2
61	29	Q5:	0	11	60	58
62	24	Q8:	1	39	37
63	21	Q1:	2	28	29	26	20
64	16	Q8:	1	45
65	39	Q6:	2	56	1
66	22	Q6:	1	49	29	22
67	20	Q1:	2	31
68	19	Q7:	0
69	34	Q4:	0	25	62	52	68	4	67
70	15	Q6:	1
71	33	Q2:	3	56
72	28	Q4:	3	39
73	17	Q4:	0
74	22	Q9:	3	33	73	25
75	15	Q1:	3	55
76	29	Q8:	1
77	27	Q7:	0	74
78	36	Q8:	1	43	21	10
79	34	Q1:	1	38	61	6
80	21	Q3:	2	32	70
81	14	Q1:	3	25	63	35
82	18	Q6:	2	67	47	26
83	30	Q1:	3	50
84	17	Q4:	3	55	25
85	29	Q3:	2	57	17	63
86	39	Q1:	0	76
87	15	Q6:	1	26	73	75
88	10	Q3:	3	60
89	31	Q9:	2	72	60	46
90	17	Q7:	2	16	30
91	37	Q5:	2
92	26	Q7:	3	29	39
93	19	Q9:	1	4	72	30
94	20	Q3:	0	67	60	32
95	13	Q3:	1	12	58	74	64
96	24	Q9:	3	52	71
97	23	Q2:	0	84	41
98	19	Q1:	2	27
99	19	Q0:	1	43	35
100	34	Q5:	2	77
101	32	Q1:	3
102	14	Q2:	2	39	35	79	18
103	40	Q7:	1	57	73
104	29	Q2:	0	87
105	23	Q5:	0	62	73	81	98
106	22	Q4:	0	69	90	101	54	82
107	10	Q7:	1	45
108	31	Q0:	1	18
109	38	Q7:	2	36
110	17	Q9:	2	12	6
111	37	Q6:	0	34	56	88	104
112	34	Q9:	0	59	101
113	31	Q4:	2
114	10	Q3:	1	105
115	12	Q5:	2	114	85	34	56	46	91
116	39	Q4:	1	108	31
117	35	Q6:	3	43	35
118	26	Q7:	2	115	50	74
119	37	Q8:	1	62	43
120	40	Q0:	1	90	30
121	13	Q5:	3	47	119
122	31	Q2:	1	57	112	117	5
123	12	Q9:	3	1
124	29	Q6:	1	30	108	61	67
125	19	Q6:	2	83
126	14	Q7:	0	24	79	27	111	7	1	13	21
127	10	Q4:	1	73	108
128	24	Q1:	0	17	60
129	23	Q4:	3	88	18
130	9	Q8:	3	105	104	94
131	25	Q4:	1	122	55	23
132	24	Q1:	3	57	18	129
133	13	Q5:	0	7	21	37
134	29	Q4:	2	66	45	107	56	29
135	34	Q1:	1	19	130	109	132	110	72	11	89
136	31	Q4:	3
137	19	Q2:	3	97	85	115
138	20	Q5:	2	68	22
139	17	Q8:	3	117	85	127	116
140	23	Q5:	3	29
141	38	Q6:	0	105	1	32	95	65	6
142	27	Q7:	2	62	23	17	50	94	112
143	39	Q7:	2	128	59	44	107	106
144	31	Q0:	1	114	9
145	10	Q7:	2	119	113	136	116
146	34	Q1:	1	47	52
147	28	Q7:	1	6	34	100
148	15	Q5:	0	23	77	13	24
149	29	Q1:	2	33
150	9	Q0:	0	27	41	15
151	28	Q9:	2	145	13	49	54
152	18	Q0:	3	30	33	1	116	126
153	24	Q2:	0	83	36	66	60	59	122	39	73	134
154	28	Q9:	3	59	146	5	109
155	24	Q4:	1	30	79	25	41
156	13	Q1:	1	79	103	113
157	30	Q4:	2	102	1	58	147	143
158	12	Q7:	2	14	109	123
159	12	Q9:	0	45	84
160	25	Q1:	1	91	63	132	108	20	37	87	144
161	39	Q3:	1	57	158	30	50	66
162	20	Q4:	3	126	75	84	151
163	25	Q4:	0	31	94	132	37	130	42	89	106	18
164	9	Q2:	1	49	119	114	5	86
165	37	Q1:	2	50	15	12
166	18	Q3:	1	45	39	144	85
167	28	Q5:	3	14	33	155	165	147
168	24	Q9:	1	25
169	19	Q5:	1	29	138	70	66
170	19	Q2:	1	23	157
171	34	Q2:	1	38	129	60	131
172	11	Q0:	1	91	47	153	150	110
173	22	Q3:	1	145	159	149
174	29	Q0:	3	65	123	33	8	35	88	121
175	13	Q6:	2	57	15	127	162	149	154	115	24	87
176	36	Q2:	0	79	44	110	22	129	50	35	69	68
177	23	Q0:	1	126	46	75	167
178	26	Q6:	1	26	157
179	37	Q9:	0	39	2	73	51	12	14
180	14	Q7:	0	24	16
181	21	Q6:	3	144	137	72	18	1
182	22	Q0:	0	71	110	177	56
183	16	Q9:	1	4	81	34	130	125	142
184	21	Q7:	3	46	16	52	15	157	47	150
185	39	Q4:	1	96	37	108	160	134	131	88	89	158
186	23	Q5:	1	91	120
187	26	Q9:	0	108	169	2	45	181
188	39	Q8:	3	154	70	103	155	8	75
189	25	Q1:	2	118	186	171	38
190	19	Q1:	3	132	150	143	79	76
191	39	Q8:	2	183	150	137	147	144	170	172	154	189	1
192	31	Q6:	2	42	49
193	27	Q3:	0	179	70	170	105	181	141
194	36	Q5:	2	40	8	135	154	162	78
195	21	Q8:	1	142	117	186
196	9	Q3:	3	16	5	140	63	132	187	124	161	39
197	9	Q4:	3	122	162
198	12	Q5:	2	6	91	176
199	38	Q4:	2	154	33
200	27	Q6:	2	121	29	48
========================================================== 